p cnf 30 82
a 17 11 0
e 1 2 3 4 5 6 7 8 9 10 12 13 14 15 16 18 19 20 21 22 23 24 25 26 27 28 29 30 0
-3 -1 0
-3 2 0
1 -2 3 0
3 1 -4 0
-3 -1 -4 0
3 -1 4 0
-3 1 4 0
-6 2 0
-6 5 0
-2 -5 6 0
6 7 -8 0
-6 -7 -8 0
6 -7 8 0
-6 7 8 0
-8 9 -10 0
8 -9 -10 0
-8 -9 10 0
8 9 10 0
3 11 -12 0
-3 -11 -12 0
3 -11 12 0
-3 11 12 0
-13 2 0
-13 -2 0
-13 2 -14 0
13 -2 -14 0
-13 -2 14 0
13 2 14 0
15 12 0
15 14 0
-12 -14 -15 0
-16 -10 0
-16 -15 0
10 15 16 0
17 4 0
17 16 0
-4 -16 -17 0
19 6 0
19 -7 0
-6 7 -19 0
-20 18 0
-20 19 0
-18 -19 20 0
-21 1 0
-21 5 0
-1 -5 21 0
20 21 -22 0
-20 -21 -22 0
20 -21 22 0
-20 21 22 0
23 8 -24 0
-23 -8 -24 0
23 -8 24 0
-23 8 24 0
25 9 0
25 -13 0
-9 13 -25 0
26 24 0
26 25 0
-24 -25 -26 0
-5 -6 -27 0
5 6 -27 0
-5 6 27 0
5 -6 27 0
-26 27 -28 0
26 -27 -28 0
-26 -27 28 0
26 27 28 0
-29 22 0
-29 28 0
-22 -28 29 0
30 17 0
30 29 0
-17 -29 -30 0
14 17 7 23 0
8 22 -16 -23 12 0
-6 -18 -27 0
-27 5 -20 0
11 5 -4 14 9 0
-4 7 9 1 29 -8 -19 -30 0
6 18 -4 0
30 0
